
Gurobi 7.0.1 (mac64, Python) logging started Wed Mar  1 21:03:37 2017

Optimize a model with 326 rows, 3288 columns and 6576 nonzeros
Coefficient statistics:
  Matrix range     [1e+00, 1e+00]
  Objective range  [1e+00, 1e+00]
  Bounds range     [0e+00, 0e+00]
  RHS range        [1e+00, 1e+00]
Presolve removed 34 rows and 1682 columns
Presolve time: 0.01s
Presolved: 292 rows, 1606 columns, 3211 nonzeros

Iteration    Objective       Primal Inf.    Dual Inf.      Time
       0    2.0000000e+00   2.000000e+00   0.000000e+00      0s
      94    1.0000000e+01   0.000000e+00   0.000000e+00      0s

Solved in 94 iterations and 0.01 seconds
Optimal objective  1.000000000e+01
Optimize a model with 488 rows, 4949 columns and 9881 nonzeros
Coefficient statistics:
  Matrix range     [1e+00, 1e+00]
  Objective range  [1e+00, 1e+00]
  Bounds range     [0e+00, 0e+00]
  RHS range        [1e+00, 1e+00]
Presolve removed 50 rows and 2532 columns
Presolve time: 0.01s
Presolved: 438 rows, 2417 columns, 4825 nonzeros

Iteration    Objective       Primal Inf.    Dual Inf.      Time
       0    2.0000000e+00   2.000000e+00   0.000000e+00      0s
Extra 3 simplex iterations after uncrush
     262    2.4000000e+01   0.000000e+00   0.000000e+00      0s

Solved in 262 iterations and 0.01 seconds
Optimal objective  2.400000000e+01

Gurobi 7.0.1 (mac64, Python) logging started Wed Mar  1 21:11:11 2017

Optimize a model with 1133 rows, 11520 columns and 23040 nonzeros
Coefficient statistics:
  Matrix range     [1e+00, 1e+00]
  Objective range  [1e+00, 1e+00]
  Bounds range     [0e+00, 0e+00]
  RHS range        [1e+00, 1e+00]
Presolve removed 110 rows and 5889 columns
Presolve time: 0.01s
Presolved: 1023 rows, 5631 columns, 11262 nonzeros

Iteration    Objective       Primal Inf.    Dual Inf.      Time
       0    0.0000000e+00   2.000000e+00   0.000000e+00      0s
Extra 2 simplex iterations after uncrush
     834    3.1000000e+01   0.000000e+00   0.000000e+00      0s

Solved in 834 iterations and 0.05 seconds
Optimal objective  3.100000000e+01
Optimize a model with 809 rows, 8241 columns and 16473 nonzeros
Coefficient statistics:
  Matrix range     [1e+00, 1e+00]
  Objective range  [1e+00, 1e+00]
  Bounds range     [0e+00, 0e+00]
  RHS range        [1e+00, 1e+00]
Presolve removed 79 rows and 4215 columns
Presolve time: 0.01s
Presolved: 730 rows, 4026 columns, 8047 nonzeros

Iteration    Objective       Primal Inf.    Dual Inf.      Time
       0    2.0000000e+00   2.000000e+00   0.000000e+00      0s
Extra 64 simplex iterations after uncrush
     677    4.8000000e+01   0.000000e+00   0.000000e+00      0s

Solved in 677 iterations and 0.03 seconds
Optimal objective  4.800000000e+01

Gurobi 7.0.1 (mac64, Python) logging started Fri Mar  3 21:13:23 2017

Optimize a model with 1550 rows, 14708 columns and 31550 nonzeros
Coefficient statistics:
  Matrix range     [3e-01, 1e+00]
  Objective range  [1e+00, 1e+00]
  Bounds range     [0e+00, 0e+00]
  RHS range        [1e+00, 1e+00]

Concurrent LP optimizer: dual simplex and barrier
Showing barrier log only...

Presolve removed 63 rows and 138 columns
Presolve time: 0.03s
Presolved: 1487 rows, 14570 columns, 31274 nonzeros

Ordering time: 0.00s

Barrier statistics:
 AA' NZ     : 1.285e+04
 Factor NZ  : 3.971e+04 (roughly 7 MBytes of memory)
 Factor Ops : 1.184e+06 (less than 1 second per iteration)
 Threads    : 1

Barrier performed 0 iterations in 0.05 seconds
Barrier solve interrupted - model solved by another algorithm


Solved with dual simplex
Solved in 289 iterations and 0.05 seconds
Optimal objective  1.000000000e+01
Optimize a model with 2324 rows, 22090 columns and 47366 nonzeros
Coefficient statistics:
  Matrix range     [3e-01, 1e+00]
  Objective range  [1e+00, 1e+00]
  Bounds range     [0e+00, 0e+00]
  RHS range        [1e+00, 1e+00]

Concurrent LP optimizer: dual simplex and barrier
Showing barrier log only...

Presolve removed 94 rows and 208 columns
Presolve time: 0.06s
Presolved: 2230 rows, 21882 columns, 46951 nonzeros

Ordering time: 0.00s

Barrier statistics:
 AA' NZ     : 1.927e+04
 Factor NZ  : 6.034e+04 (roughly 10 MBytes of memory)
 Factor Ops : 1.825e+06 (less than 1 second per iteration)
 Threads    : 1

                  Objective                Residual
Iter       Primal          Dual         Primal    Dual     Compl     Time
   0   3.41235657e+04  0.00000000e+00  2.33e+01 0.00e+00  2.34e+00     0s
   1   6.88991354e+03  7.15473713e-01  2.51e+00 6.66e-16  3.50e-01     0s
   2   5.56679709e+02  3.41699539e+00  1.29e-01 1.11e-15  2.72e-02     0s
   3   1.04861836e+02  1.75569381e+01  1.11e-02 5.33e-15  4.15e-03     0s
   4   4.61042364e+01  2.26694842e+01  2.33e-03 5.11e-15  1.10e-03     0s
   5   2.89803883e+01  2.38932489e+01  4.46e-04 4.88e-15  2.38e-04     0s
   6   2.47184968e+01  2.44706363e+01  1.98e-05 6.22e-15  1.16e-05     0s
   7   2.45000419e+01  2.44999859e+01  3.36e-09 5.33e-15  2.60e-09     0s
   8   2.45000000e+01  2.45000000e+01  1.02e-10 5.55e-15  2.57e-12     0s

Barrier solved model in 8 iterations and 0.14 seconds
Optimal objective 2.45000000e+01

Crossover log...

    2137 DPushes remaining with DInf 0.0000000e+00                 0s
       0 DPushes remaining with DInf 0.0000000e+00                 0s

     123 PPushes remaining with PInf 0.0000000e+00                 0s
       0 PPushes remaining with PInf 0.0000000e+00                 0s

  Push phase complete: Pinf 0.0000000e+00, Dinf 0.0000000e+00      0s

Iteration    Objective       Primal Inf.    Dual Inf.      Time
    2263    2.4500000e+01   0.000000e+00   0.000000e+00      0s
Extra 9 simplex iterations after uncrush
    2272    2.4500000e+01   0.000000e+00   0.000000e+00      0s

Solved with barrier
Solved in 2272 iterations and 0.18 seconds
Optimal objective  2.450000000e+01

Gurobi 7.0.1 (mac64, Python) logging started Fri Mar  3 21:20:24 2017

Optimize a model with 5412 rows, 51506 columns and 110501 nonzeros
Coefficient statistics:
  Matrix range     [3e-01, 1e+00]
  Objective range  [1e+00, 1e+00]
  Bounds range     [0e+00, 0e+00]
  RHS range        [1e+00, 1e+00]

Concurrent LP optimizer: dual simplex and barrier
Showing barrier log only...

Presolve removed 212 rows and 474 columns
Presolve time: 0.11s
Presolved: 5200 rows, 51032 columns, 109553 nonzeros

Ordering time: 0.00s

Barrier statistics:
 AA' NZ     : 4.506e+04
 Factor NZ  : 1.429e+05 (roughly 24 MBytes of memory)
 Factor Ops : 4.385e+06 (less than 1 second per iteration)
 Threads    : 1

                  Objective                Residual
Iter       Primal          Dual         Primal    Dual     Compl     Time
   0   5.79425616e+03  0.00000000e+00  1.69e+00 0.00e+00  1.69e-01     0s
   1   1.35099129e+03  1.04302296e+01  2.42e-01 1.33e-15  3.08e-02     0s
   2   3.02971911e+02  2.04584506e+01  4.51e-02 1.20e-02  6.24e-03     0s
   3   7.93793641e+01  2.73605602e+01  6.79e-03 3.90e-03  1.12e-03     0s
   4   4.71676549e+01  2.95772221e+01  2.03e-03 2.76e-03  3.73e-04     0s
   5   3.50421016e+01  3.06424032e+01  4.67e-04 8.21e-04  9.26e-05     0s
   6   3.12030247e+01  3.09890035e+01  2.09e-05 2.49e-05  4.47e-06     0s
   7   3.10000408e+01  3.09999963e+01  4.40e-09 2.76e-09  9.28e-10     0s
   8   3.10000000e+01  3.10000000e+01  1.26e-12 6.22e-15  1.17e-13     0s

Barrier solved model in 8 iterations and 0.26 seconds
Optimal objective 3.10000000e+01

Crossover log...

       0 DPushes remaining with DInf 0.0000000e+00                 0s

     214 PPushes remaining with PInf 0.0000000e+00                 0s
       0 PPushes remaining with PInf 0.0000000e+00                 0s

  Push phase complete: Pinf 0.0000000e+00, Dinf 0.0000000e+00      0s

Iteration    Objective       Primal Inf.    Dual Inf.      Time
    5249    3.1000000e+01   0.000000e+00   0.000000e+00      0s
Extra 17 simplex iterations after uncrush
    5266    3.1000000e+01   0.000000e+00   0.000000e+00      0s

Solved with barrier
Solved in 5266 iterations and 0.34 seconds
Optimal objective  3.100000000e+01
Optimize a model with 3864 rows, 36804 columns and 78957 nonzeros
Coefficient statistics:
  Matrix range     [3e-01, 1e+00]
  Objective range  [1e+00, 1e+00]
  Bounds range     [0e+00, 0e+00]
  RHS range        [1e+00, 1e+00]

Concurrent LP optimizer: dual simplex and barrier
Showing barrier log only...

Presolve removed 151 rows and 336 columns
Presolve time: 0.09s
Presolved: 3713 rows, 36468 columns, 78284 nonzeros

Ordering time: 0.00s

Barrier statistics:
 AA' NZ     : 3.221e+04
 Factor NZ  : 1.018e+05 (roughly 17 MBytes of memory)
 Factor Ops : 3.125e+06 (less than 1 second per iteration)
 Threads    : 1

                  Objective                Residual
Iter       Primal          Dual         Primal    Dual     Compl     Time
   0   4.60865111e+04  2.00000000e+00  1.88e+01 0.00e+00  1.89e+00     0s
   1   4.64167569e+03  1.92974301e+00  6.00e-01 8.88e-16  1.36e-01     0s
   2   6.27109483e+02  1.13400058e+01  6.09e-02 2.66e-15  1.79e-02     0s
   3   1.34647039e+02  3.50057426e+01  5.36e-03 1.07e-14  2.81e-03     0s
   4   8.97603741e+01  4.14486796e+01  2.34e-03 9.21e-15  1.35e-03     0s
   5   6.64906675e+01  4.57740260e+01  9.26e-04 9.44e-15  5.77e-04     0s
   6   5.41286982e+01  4.72559553e+01  2.80e-04 9.99e-15  1.91e-04     0s
   7   4.82258888e+01  4.79392811e+01  8.44e-06 1.02e-14  7.93e-06     0s
   8   4.80002346e+01  4.79999378e+01  1.30e-13 9.99e-15  8.14e-09     0s
   9   4.80000002e+01  4.79999999e+01  2.27e-13 1.09e-14  8.14e-12     0s

Barrier solved model in 9 iterations and 0.21 seconds
Optimal objective 4.80000002e+01

Crossover log...

    3442 DPushes remaining with DInf 0.0000000e+00                 0s
       0 DPushes remaining with DInf 0.0000000e+00                 0s

     374 PPushes remaining with PInf 0.0000000e+00                 0s
       0 PPushes remaining with PInf 0.0000000e+00                 0s

  Push phase complete: Pinf 0.0000000e+00, Dinf 0.0000000e+00      0s

Iteration    Objective       Primal Inf.    Dual Inf.      Time
    3819    4.8000000e+01   0.000000e+00   0.000000e+00      0s
Extra 2 simplex iterations after uncrush
    3821    4.8000000e+01   0.000000e+00   0.000000e+00      0s

Solved with barrier
Solved in 3821 iterations and 0.25 seconds
Optimal objective  4.800000000e+01

Gurobi 7.0.2 (linux64, Python) logging started Mon Mar  6 16:15:53 2017

Optimize a model with 87253 rows, 916540 columns and 1419821 nonzeros
Coefficient statistics:
  Matrix range     [1e+00, 1e+00]
  Objective range  [1e+00, 1e+00]
  Bounds range     [0e+00, 0e+00]
  RHS range        [1e+00, 1e+00]

Concurrent LP optimizer: dual simplex and barrier
Showing barrier log only...

Presolve removed 3817 rows and 418648 columns
Presolve time: 1.54s
Presolved: 83436 rows, 497892 columns, 995784 nonzeros

Ordering time: 0.82s

Barrier statistics:
 AA' NZ     : 2.705e+05
 Factor NZ  : 2.579e+06 (roughly 250 MBytes of memory)
 Factor Ops : 2.738e+08 (less than 1 second per iteration)
 Threads    : 3

                  Objective                Residual
Iter       Primal          Dual         Primal    Dual     Compl     Time
   0   6.62550197e+04  0.00000000e+00  1.99e+00 1.00e+00  4.53e-01     3s
   1   4.32187888e+04  2.56930469e+00  3.63e-01 2.24e-01  1.13e-01     3s
   2   7.97481557e+03  3.70781799e+00  2.72e-02 1.68e-02  1.51e-02     3s
   3   1.81446083e+03  7.24219712e+00  5.28e-03 6.09e-04  3.28e-03     3s
   4   8.24917015e+02  1.06774382e+01  2.22e-03 0.00e+00  1.48e-03     4s
   5   7.11643331e+02  1.32923631e+01  1.90e-03 0.00e+00  1.28e-03     4s
   6   6.22992614e+02  1.66654496e+01  1.65e-03 0.00e+00  1.12e-03     4s
   7   3.92148664e+02  2.03417175e+01  1.02e-03 0.00e+00  6.93e-04     4s
   8   3.35232590e+02  2.45329498e+01  8.57e-04 0.00e+00  5.88e-04     4s
   9   3.24119389e+02  2.95259492e+01  8.27e-04 0.00e+00  5.70e-04     4s
  10   2.28468466e+02  3.29100048e+01  5.61e-04 0.00e+00  3.86e-04     4s
  11   1.93505943e+02  4.06654421e+01  4.58e-04 0.00e+00  3.19e-04     5s
  12   1.67255307e+02  4.58475862e+01  3.76e-04 0.00e+00  2.66e-04     5s
  13   1.53983899e+02  5.10133041e+01  3.34e-04 0.00e+00  2.37e-04     5s
  14   1.45787132e+02  5.62873396e+01  3.06e-04 0.00e+00  2.19e-04     5s
  15   1.34256417e+02  6.05558366e+01  2.71e-04 1.30e-05  1.92e-04     5s
  16   1.27385172e+02  6.40381817e+01  2.45e-04 0.00e+00  1.74e-04     5s
  17   1.24895997e+02  6.25591467e+01  2.35e-04 0.00e+00  1.67e-04     6s
  18   1.17939006e+02  5.64346971e+01  1.96e-04 0.00e+00  1.47e-04     6s
  19   1.13017605e+02  6.40730983e+01  1.74e-04 0.00e+00  1.30e-04     6s
  20   8.28517248e+01  6.54711810e+01  5.26e-05 0.00e+00  4.45e-05     6s
  21   6.93787012e+01  6.69884358e+01  4.36e-06 0.00e+00  5.38e-06     6s
  22   6.70008637e+01  6.69999192e+01  1.44e-09 1.42e-14  2.05e-09     6s
  23   6.70000000e+01  6.70000000e+01  1.27e-11 1.42e-14  1.34e-14     7s

Barrier solved model in 23 iterations and 6.52 seconds
Optimal objective 6.70000000e+01

Crossover log...

   83250 DPushes remaining with DInf 0.0000000e+00                 7s
       0 DPushes remaining with DInf 0.0000000e+00                 7s

      74 PPushes remaining with PInf 0.0000000e+00                 7s
       0 PPushes remaining with PInf 0.0000000e+00                 7s

  Push phase complete: Pinf 0.0000000e+00, Dinf 0.0000000e+00      7s

Iteration    Objective       Primal Inf.    Dual Inf.      Time
   83327    6.7000000e+01   0.000000e+00   0.000000e+00      8s
Extra 55 simplex iterations after uncrush
   83382    6.7000000e+01   0.000000e+00   0.000000e+00      8s

Solved with barrier
Solved in 83382 iterations and 8.07 seconds
Optimal objective  6.700000000e+01
Optimize a model with 62289 rows, 654832 columns and 1014340 nonzeros
Coefficient statistics:
  Matrix range     [1e+00, 1e+00]
  Objective range  [1e+00, 1e+00]
  Bounds range     [0e+00, 0e+00]
  RHS range        [1e+00, 1e+00]

Concurrent LP optimizer: dual simplex and barrier
Showing barrier log only...

Presolve removed 2663 rows and 298997 columns
Presolve time: 1.25s
Presolved: 59626 rows, 355835 columns, 711637 nonzeros

Ordering time: 0.57s

Barrier statistics:
 AA' NZ     : 1.935e+05
 Factor NZ  : 1.866e+06 (roughly 200 MBytes of memory)
 Factor Ops : 2.120e+08 (less than 1 second per iteration)
 Threads    : 3

                  Objective                Residual
Iter       Primal          Dual         Primal    Dual     Compl     Time
   0   9.02948706e+04  0.00000000e+00  3.79e+00 1.00e+00  8.64e-01     2s
   1   5.85130632e+04  1.94362508e+00  6.85e-01 6.29e-01  2.46e-01     2s
   2   1.61934029e+04  4.05544789e+00  4.14e-02 1.83e-02  4.12e-02     2s
   3   2.60103181e+03  6.61383988e+00  5.76e-03 0.00e+00  6.46e-03     3s
   4   1.78255284e+03  9.80234920e+00  3.93e-03 0.00e+00  4.42e-03     3s
   5   9.40852745e+02  1.56065164e+01  1.99e-03 0.00e+00  2.32e-03     3s
   6   7.88242381e+02  2.12635281e+01  1.65e-03 0.00e+00  1.94e-03     3s
   7   5.97226196e+02  2.61261512e+01  1.21e-03 0.00e+00  1.45e-03     3s
   8   5.14447677e+02  3.71395595e+01  1.03e-03 0.00e+00  1.24e-03     3s
   9   4.24416956e+02  4.22256442e+01  8.25e-04 0.00e+00  1.00e-03     3s
  10   3.76495019e+02  5.84682833e+01  7.15e-04 0.00e+00  8.81e-04     3s
  11   3.05794653e+02  6.63038479e+01  5.57e-04 0.00e+00  6.85e-04     3s
  12   2.92258994e+02  7.42305083e+01  5.22e-04 0.00e+00  6.46e-04     3s
  13   2.79307849e+02  8.09477392e+01  4.91e-04 0.00e+00  6.11e-04     4s
  14   2.60216459e+02  8.63940113e+01  4.45e-04 0.00e+00  5.55e-04     4s
  15   2.51234681e+02  8.87170660e+01  4.23e-04 0.00e+00  5.26e-04     4s
  16   2.36176166e+02  9.48754694e+01  3.84e-04 0.00e+00  4.77e-04     4s
  17   2.30947971e+02  1.02025428e+02  3.67e-04 0.00e+00  4.62e-04     4s
  18   2.27387292e+02  1.15251601e+02  3.54e-04 0.00e+00  4.51e-04     4s
  19   2.14694758e+02  1.18913643e+02  3.18e-04 0.00e+00  4.02e-04     4s
  20   2.00794435e+02  1.26307168e+02  2.72e-04 0.00e+00  3.42e-04     4s
  21   1.90028711e+02  1.23284118e+02  2.29e-04 0.00e+00  2.91e-04     4s
  22   1.77903154e+02  1.21215878e+02  1.63e-04 0.00e+00  2.26e-04     5s
  23   1.77453770e+02  1.26546104e+02  1.61e-04 0.00e+00  2.18e-04     5s
  24   1.76110906e+02  1.28430783e+02  1.55e-04 0.00e+00  2.09e-04     5s
  25   1.66046742e+02  1.30623766e+02  1.18e-04 0.00e+00  1.59e-04     5s
  26   1.41382799e+02  1.32440268e+02  2.76e-05 0.00e+00  3.92e-05     5s
  27   1.33428527e+02  1.32860693e+02  1.03e-06 6.05e-07  2.04e-06     5s
  28   1.33001934e+02  1.32999380e+02  2.40e-11 1.31e-09  6.17e-09     5s
  29   1.33000002e+02  1.32999999e+02  8.26e-12 2.78e-14  6.17e-12     5s
  30   1.33000000e+02  1.33000000e+02  5.60e-12 2.78e-14  6.17e-15     5s

Barrier solved model in 30 iterations and 5.41 seconds
Optimal objective 1.33000000e+02

Crossover log...

       0 DPushes remaining with DInf 0.0000000e+00                 6s

     229 PPushes remaining with PInf 0.0000000e+00                 6s
       0 PPushes remaining with PInf 0.0000000e+00                 6s

  Push phase complete: Pinf 0.0000000e+00, Dinf 0.0000000e+00      6s

Iteration    Objective       Primal Inf.    Dual Inf.      Time
   59189    1.3300000e+02   0.000000e+00   0.000000e+00      6s
Extra 81 simplex iterations after uncrush
   59270    1.3300000e+02   0.000000e+00   0.000000e+00      6s

Solved with barrier
Solved in 59270 iterations and 6.35 seconds
Optimal objective  1.330000000e+02

Gurobi 7.0.2 (linux64, Python) logging started Tue Mar  7 21:59:09 2017

Optimize a model with 87253 rows, 916540 columns and 1419821 nonzeros
Coefficient statistics:
  Matrix range     [1e+00, 1e+00]
  Objective range  [1e+00, 1e+00]
  Bounds range     [0e+00, 0e+00]
  RHS range        [1e+00, 1e+00]

Concurrent LP optimizer: dual simplex and barrier
Showing barrier log only...

Presolve removed 3817 rows and 418648 columns
Presolve time: 1.56s
Presolved: 83436 rows, 497892 columns, 995784 nonzeros

Ordering time: 1.08s

Barrier statistics:
 AA' NZ     : 2.705e+05
 Factor NZ  : 2.579e+06 (roughly 250 MBytes of memory)
 Factor Ops : 2.738e+08 (less than 1 second per iteration)
 Threads    : 3

                  Objective                Residual
Iter       Primal          Dual         Primal    Dual     Compl     Time
   0   6.62550197e+04  0.00000000e+00  1.99e+00 1.00e+00  4.53e-01     3s
   1   4.32187888e+04  2.56930469e+00  3.63e-01 2.24e-01  1.13e-01     3s
   2   7.97481557e+03  3.70781799e+00  2.72e-02 1.68e-02  1.51e-02     3s
   3   1.81446083e+03  7.24219712e+00  5.28e-03 6.09e-04  3.28e-03     4s
   4   8.24917015e+02  1.06774382e+01  2.22e-03 0.00e+00  1.48e-03     4s
   5   7.11643331e+02  1.32923631e+01  1.90e-03 0.00e+00  1.28e-03     4s
   6   6.22992614e+02  1.66654496e+01  1.65e-03 0.00e+00  1.12e-03     4s
   7   3.92148664e+02  2.03417175e+01  1.02e-03 0.00e+00  6.93e-04     4s
   8   3.35232590e+02  2.45329498e+01  8.57e-04 0.00e+00  5.88e-04     4s
   9   3.24119389e+02  2.95259492e+01  8.27e-04 0.00e+00  5.70e-04     5s
  10   2.28468466e+02  3.29100048e+01  5.61e-04 0.00e+00  3.86e-04     5s
  11   1.93505943e+02  4.06654421e+01  4.58e-04 0.00e+00  3.19e-04     5s
  12   1.67255307e+02  4.58475862e+01  3.76e-04 0.00e+00  2.66e-04     5s
  13   1.53983899e+02  5.10133041e+01  3.34e-04 0.00e+00  2.37e-04     5s
  14   1.45787132e+02  5.62873396e+01  3.06e-04 0.00e+00  2.19e-04     5s
  15   1.34256417e+02  6.05558366e+01  2.71e-04 1.30e-05  1.92e-04     6s
  16   1.27385172e+02  6.40381817e+01  2.45e-04 0.00e+00  1.74e-04     6s
  17   1.24895997e+02  6.25591467e+01  2.35e-04 0.00e+00  1.67e-04     6s
  18   1.17939006e+02  5.64346971e+01  1.96e-04 0.00e+00  1.47e-04     6s
  19   1.13017605e+02  6.40730983e+01  1.74e-04 0.00e+00  1.30e-04     6s
  20   8.28517248e+01  6.54711810e+01  5.26e-05 0.00e+00  4.45e-05     6s
  21   6.93787012e+01  6.69884358e+01  4.36e-06 0.00e+00  5.38e-06     7s
  22   6.70008637e+01  6.69999192e+01  1.44e-09 1.42e-14  2.05e-09     7s
  23   6.70000000e+01  6.70000000e+01  1.27e-11 1.42e-14  1.34e-14     7s

Barrier solved model in 23 iterations and 6.91 seconds
Optimal objective 6.70000000e+01

Crossover log...

   83250 DPushes remaining with DInf 0.0000000e+00                 7s
       0 DPushes remaining with DInf 0.0000000e+00                 8s

      74 PPushes remaining with PInf 0.0000000e+00                 8s
       0 PPushes remaining with PInf 0.0000000e+00                 8s

  Push phase complete: Pinf 0.0000000e+00, Dinf 0.0000000e+00      8s

Iteration    Objective       Primal Inf.    Dual Inf.      Time
   83327    6.7000000e+01   0.000000e+00   0.000000e+00      8s
Extra 55 simplex iterations after uncrush
   83382    6.7000000e+01   0.000000e+00   0.000000e+00      8s

Solved with barrier
Solved in 83382 iterations and 8.37 seconds
Optimal objective  6.700000000e+01
Optimize a model with 62289 rows, 654832 columns and 1014340 nonzeros
Coefficient statistics:
  Matrix range     [1e+00, 1e+00]
  Objective range  [1e+00, 1e+00]
  Bounds range     [0e+00, 0e+00]
  RHS range        [1e+00, 1e+00]

Concurrent LP optimizer: dual simplex and barrier
Showing barrier log only...

Presolve removed 2663 rows and 298997 columns
Presolve time: 1.25s
Presolved: 59626 rows, 355835 columns, 711637 nonzeros

Ordering time: 0.71s

Barrier statistics:
 AA' NZ     : 1.935e+05
 Factor NZ  : 1.866e+06 (roughly 200 MBytes of memory)
 Factor Ops : 2.120e+08 (less than 1 second per iteration)
 Threads    : 3

                  Objective                Residual
Iter       Primal          Dual         Primal    Dual     Compl     Time
   0   9.02948706e+04  0.00000000e+00  3.79e+00 1.00e+00  8.64e-01     2s
   1   5.85130632e+04  1.94362508e+00  6.85e-01 6.29e-01  2.46e-01     2s
   2   1.61934029e+04  4.05544789e+00  4.14e-02 1.83e-02  4.12e-02     3s
   3   2.60103181e+03  6.61383988e+00  5.76e-03 0.00e+00  6.46e-03     3s
   4   1.78255284e+03  9.80234920e+00  3.93e-03 0.00e+00  4.42e-03     3s
   5   9.40852745e+02  1.56065164e+01  1.99e-03 0.00e+00  2.32e-03     3s
   6   7.88242381e+02  2.12635281e+01  1.65e-03 0.00e+00  1.94e-03     3s
   7   5.97226196e+02  2.61261512e+01  1.21e-03 0.00e+00  1.45e-03     3s
   8   5.14447677e+02  3.71395595e+01  1.03e-03 0.00e+00  1.24e-03     3s
   9   4.24416956e+02  4.22256442e+01  8.25e-04 0.00e+00  1.00e-03     3s
  10   3.76495019e+02  5.84682833e+01  7.15e-04 0.00e+00  8.81e-04     3s
  11   3.05794653e+02  6.63038479e+01  5.57e-04 0.00e+00  6.85e-04     4s
  12   2.92258994e+02  7.42305083e+01  5.22e-04 0.00e+00  6.46e-04     4s
  13   2.79307849e+02  8.09477392e+01  4.91e-04 0.00e+00  6.11e-04     4s
  14   2.60216459e+02  8.63940113e+01  4.45e-04 0.00e+00  5.55e-04     4s
  15   2.51234681e+02  8.87170660e+01  4.23e-04 0.00e+00  5.26e-04     4s
  16   2.36176166e+02  9.48754694e+01  3.84e-04 0.00e+00  4.77e-04     4s
  17   2.30947971e+02  1.02025428e+02  3.67e-04 0.00e+00  4.62e-04     4s
  18   2.27387292e+02  1.15251601e+02  3.54e-04 0.00e+00  4.51e-04     4s
  19   2.14694758e+02  1.18913643e+02  3.18e-04 0.00e+00  4.02e-04     4s
  20   2.00794435e+02  1.26307168e+02  2.72e-04 0.00e+00  3.42e-04     5s
  21   1.90028711e+02  1.23284118e+02  2.29e-04 0.00e+00  2.91e-04     5s
  22   1.77903154e+02  1.21215878e+02  1.63e-04 0.00e+00  2.26e-04     5s
  23   1.77453770e+02  1.26546104e+02  1.61e-04 0.00e+00  2.18e-04     5s
  24   1.76110906e+02  1.28430783e+02  1.55e-04 0.00e+00  2.09e-04     5s
  25   1.66046742e+02  1.30623766e+02  1.18e-04 0.00e+00  1.59e-04     5s
  26   1.41382799e+02  1.32440268e+02  2.76e-05 0.00e+00  3.92e-05     5s
  27   1.33428527e+02  1.32860693e+02  1.03e-06 6.05e-07  2.04e-06     5s
  28   1.33001934e+02  1.32999380e+02  2.40e-11 1.31e-09  6.17e-09     5s
  29   1.33000002e+02  1.32999999e+02  8.26e-12 2.78e-14  6.17e-12     6s
  30   1.33000000e+02  1.33000000e+02  5.60e-12 2.78e-14  6.17e-15     6s

Barrier solved model in 30 iterations and 5.69 seconds
Optimal objective 1.33000000e+02

Crossover log...

       0 DPushes remaining with DInf 0.0000000e+00                 6s

     229 PPushes remaining with PInf 0.0000000e+00                 6s
       0 PPushes remaining with PInf 0.0000000e+00                 6s

  Push phase complete: Pinf 0.0000000e+00, Dinf 0.0000000e+00      6s

Iteration    Objective       Primal Inf.    Dual Inf.      Time
   59189    1.3300000e+02   0.000000e+00   0.000000e+00      6s
Extra 81 simplex iterations after uncrush
   59270    1.3300000e+02   0.000000e+00   0.000000e+00      7s

Solved with barrier
Solved in 59270 iterations and 6.62 seconds
Optimal objective  1.330000000e+02
